<?xml version="1.0" encoding="UTF-8"?><osil xmlns="os.optimizationservices.org" xmlns:xsi="http://www.w3.org/2001/XMLSchema-instance" xsi:schemaLocation="os.optimizationservices.org http://www.optimizationservices.org/schemas/2.0/OSiL.xsd"><instanceHeader><name>ex1226</name></instanceHeader><instanceData><variables numberOfVariables="5"><var name="x1" lb="1" ub="10"/><var name="x2" lb="1" ub="6"/><var name="b3" type="B" ub="1"/><var name="b4" type="B" ub="1"/><var name="b5" type="B" ub="1"/></variables><objectives><obj maxOrMin="min" name="defObj_objvar" numberOfObjCoef="2"><coef idx="0">-5</coef><coef idx="1">3</coef></obj></objectives><constraints numberOfConstraints="5"><con name="e1" ub="39"/><con name="e2" ub="3"/><con name="e3" ub="24"/><con name="e4" lb="1" ub="1"/><con name="e5" ub="1"/></constraints><linearConstraintCoefficients numberOfValues="10"><start><el mult="2">0</el><el>2</el><el>4</el><el>8</el><el>10</el></start><colIdx><el>0</el><el>1</el><el>0</el><el mult="2">1</el><el mult="3" incr="1">2</el><el>3</el><el>4</el></colIdx><value><el>1</el><el>-1</el><el>3</el><el>2</el><el>1</el><el>-1</el><el>-2</el><el>-4</el><el mult="2">1</el></value></linearConstraintCoefficients><nonlinearExpressions numberOfNonlinearExpressions="1"><nl idx="0"><sum><product><power><variable idx="0"/><number value=".5"/></power><number value="-2"/><square><variable idx="1"/></square></product><variable idx="0" coef="8"/><variable idx="1" coef="11"/><product><square><variable idx="1"/></square><number value="2"/></product><product><power><variable idx="1"/><number value=".5"/></power><number value="-2"/></product></sum></nl></nonlinearExpressions></instanceData></osil>